5
30 50 60 40 0 0
40 80 20 0 0 0
40 50 20 0 0 20
20 70 10 40 0 60
10 10 30 70 0 70
2 3 1 5 4 
2 1 3 4 5 
5 1 2 4 3 
5
30 60 50 40 0 0
40 80 20 0 0 0
40 50 20 0 0 20
20 70 10 40 0 50
10 30 10 40 0 60
2 3 5 1 4 
2 1 3 4 5 
1 5 2 4 3 
5
50 60 30 0 0 20
40 80 20 0 0 0
40 50 20 0 0 50
20 70 10 40 0 50
10 30 10 40 0 60
1 3 5 2 4 
2 1 3 4 5 
1 5 2 4 3 
5
50 60 30 0 80 0
40 80 20 0 0 0
40 50 20 0 0 30
20 70 10 50 0 50
10 30 10 50 0 60
3 1 5 2 4 
2 1 3 4 5 
3 5 2 4 1 
5
50 60 30 0 70 0
40 20 80 50 0 50
40 50 20 0 0 30
20 70 10 0 0 0
10 30 10 50 0 130
3 1 5 2 4 
4 1 3 2 5 
3 5 4 2 1 
